c random formula
p cnf 10 30
3 10 0
-10 -7 0
1 -10 0
-3 7 0
-1 -10 0
9 8 0
6 7 0
-1 -2 0
3 -6 0
7 -10 0
-8 9 0
-6 -8 0
-7 -6 0
4 -8 0
-8 -10 0
-2 8 0
-8 -6 0
-9 -5 0
5 -6 0
-5 2 0
-9 4 0
-3 6 0
6 -3 0
6 5 0
10 7 0
9 -8 0
-7 10 0
10 -1 0
-4 7 0
7 9 0
